letting n =  10
letting blocks =  [[1, 4], [1, 8], [1, 10], [2, 1], [2, 2], [2, 6], [2, 9], [3, 5], [3, 6], [3, 7], [3, 9], [3, 10], [4, 6], [5, 3], [6, 2], [6, 5], [6, 9], [8, 10], [9, 1], [9, 7], [10, 2], [10, 9]]
